NAME : X-n701-k44
COMMENT : "Generated by Uchoa, Pecin, Pessoa, Poggi, Subramanian, and Vidal (2013)"
TYPE : CVRP
DIMENSION : 701
EDGE_WEIGHT_TYPE : EUC_2D
CAPACITY : 87
NODE_COORD_SECTION
1 0 0
2 878 606
3 35 593
4 320 125
5 189 244
6 274 784
7 900 310
8 742 640
9 800 448
10 57 755
11 522 327
12 528 268
13 461 328
14 325 726
15 788 496
16 626 660
17 720 744
18 3 417
19 32 306
20 65 233
21 827 442
22 347 566
23 545 389
24 452 670
25 236 564
26 439 425
27 69 17
28 468 416
29 103 137
30 689 261
31 300 603
32 378 187
33 790 584
34 336 860
35 386 199
36 522 461
37 356 214
38 947 18
39 431 1000
40 817 983
41 71 731
42 918 54
43 989 840
44 260 262
45 904 724
46 970 295
47 567 694
48 426 75
49 24 178
50 656 590
51 128 178
52 969 965
53 309 968
54 855 798
55 587 48
56 118 736
57 838 354
58 274 298
59 311 702
60 183 963
61 392 495
62 950 484
63 621 676
64 52 482
65 956 934
66 745 263
67 289 149
68 689 900
69 216 107
70 852 560
71 45 441
72 638 84
73 66 842
74 290 815
75 68 509
76 521 672
77 100 855
78 408 483
79 491 455
80 536 563
81 114 255
82 383 536
83 902 19
84 964 423
85 610 39
86 719 961
87 837 83
88 657 185
89 289 599
90 747 259
91 292 168
92 552 548
93 560 212
94 128 950
95 211 939
96 160 473
97 32 550
98 353 65
99 995 695
100 72 691
101 19 172
102 237 657
103 994 883
104 457 195
105 35 32
106 425 288
107 12 586
108 560 747
109 302 972
110 891 540
111 812 30
112 206 371
113 241 223
114 436 508
115 601 81
116 298 860
117 977 911
118 188 304
119 545 745
120 318 269
121 839 548
122 107 557
123 262 668
124 824 424
125 859 540
126 477 909
127 323 639
128 954 411
129 271 682
130 412 518
131 751 85
132 922 84
133 13 661
134 354 560
135 524 576
136 522 565
137 228 552
138 573 723
139 71 320
140 627 736
141 760 323
142 668 714
143 777 669
144 685 750
145 654 333
146 63 754
147 477 613
148 224 523
149 662 829
150 515 78
151 962 282
152 351 237
153 737 451
154 605 442
155 472 449
156 249 840
157 537 728
158 244 611
159 205 27
160 681 545
161 921 582
162 171 870
163 810 570
164 487 331
165 451 822
166 453 518
167 888 770
168 85 443
169 895 651
170 984 369
171 494 962
172 973 891
173 721 160
174 989 256
175 638 621
176 223 951
177 602 835
178 516 523
179 780 864
180 991 664
181 914 45
182 949 533
183 335 946
184 6 338
185 234 558
186 491 163
187 170 763
188 77 45
189 845 26
190 681 306
191 107 355
192 593 124
193 231 497
194 881 371
195 420 399
196 17 680
197 581 906
198 783 782
199 334 715
200 395 79
201 285 579
202 908 478
203 532 760
204 847 460
205 438 733
206 102 417
207 645 136
208 71 222
209 337 978
210 44 67
211 760 84
212 849 533
213 984 810
214 738 919
215 918 985
216 533 824
217 579 119
218 14 972
219 609 859
220 560 291
221 32 686
222 35 244
223 280 871
224 940 401
225 452 680
226 790 271
227 832 824
228 765 381
229 653 162
230 594 601
231 114 661
232 702 726
233 649 586
234 594 299
235 433 966
236 499 695
237 159 291
238 261 445
239 46 465
240 479 816
241 108 11
242 898 637
243 667 524
244 46 379
245 120 371
246 133 485
247 958 649
248 182 943
249 23 384
250 426 116
251 36 988
252 945 828
253 350 956
254 560 676
255 975 826
256 972 624
257 836 379
258 149 821
259 295 92
260 977 685
261 917 843
262 137 226
263 477 858
264 256 630
265 235 922
266 292 81
267 449 829
268 179 845
269 136 84
270 713 592
271 94 858
272 697 981
273 165 188
274 326 480
275 750 434
276 836 453
277 574 982
278 386 481
279 705 190
280 203 945
281 816 604
282 975 849
283 703 397
284 483 904
285 47 84
286 503 851
287 438 468
288 937 42
289 629 845
290 209 270
291 61 456
292 906 841
293 624 195
294 662 907
295 673 555
296 307 43
297 296 837
298 253 75
299 829 599
300 138 159
301 617 363
302 710 107
303 37 564
304 974 967
305 759 756
306 580 848
307 260 64
308 466 4
309 596 890
310 745 159
311 411 858
312 847 81
313 207 27
314 912 418
315 859 340
316 425 770
317 375 325
318 114 18
319 923 49
320 87 908
321 84 327
322 219 869
323 378 164
324 800 100
325 22 470
326 417 894
327 952 3
328 105 215
329 80 581
330 728 532
331 823 527
332 625 890
333 854 377
334 500 240
335 126 833
336 560 23
337 138 966
338 909 990
339 447 664
340 187 283
341 435 345
342 460 767
343 325 901
344 362 602
345 448 905
346 485 74
347 754 65
348 19 676
349 583 926
350 646 430
351 678 820
352 672 469
353 451 76
354 430 867
355 497 468
356 910 712
357 364 919
358 655 436
359 580 785
360 513 457
361 860 683
362 486 458
363 768 472
364 490 89
365 936 775
366 663 367
367 653 403
368 800 702
369 846 788
370 439 890
371 343 784
372 477 523
373 459 894
374 422 91
375 612 340
376 881 418
377 665 647
378 488 927
379 574 373
380 318 951
381 580 535
382 381 57
383 578 904
384 529 432
385 424 941
386 564 835
387 462 915
388 604 438
389 711 692
390 575 526
391 661 448
392 585 331
393 1000 582
394 694 324
395 715 435
396 531 377
397 916 669
398 319 988
399 629 379
400 748 383
401 550 545
402 817 728
403 886 630
404 369 882
405 464 790
406 459 892
407 923 675
408 263 731
409 910 658
410 954 676
411 955 758
412 463 15
413 339 995
414 548 384
415 646 127
416 615 529
417 530 491
418 892 599
419 857 656
420 718 361
421 620 399
422 713 410
423 695 486
424 379 965
425 910 765
426 764 542
427 746 566
428 576 472
429 409 909
430 758 330
431 638 454
432 788 471
433 395 814
434 601 815
435 599 443
436 612 452
437 517 665
438 471 427
439 684 451
440 314 942
441 642 441
442 467 104
443 427 886
444 449 692
445 720 420
446 603 776
447 785 108
448 705 286
449 861 753
450 253 757
451 582 120
452 859 725
453 930 746
454 707 355
455 708 496
456 356 949
457 194 998
458 721 392
459 523 914
460 249 8
461 569 530
462 634 437
463 697 596
464 800 653
465 388 283
466 610 597
467 628 541
468 406 480
469 519 35
470 960 884
471 1000 655
472 891 715
473 375 465
474 653 335
475 881 810
476 476 502
477 512 6
478 314 80
479 372 452
480 796 503
481 708 436
482 980 890
483 821 409
484 459 846
485 587 505
486 396 901
487 715 374
488 469 73
489 528 455
490 714 162
491 436 399
492 441 504
493 677 307
494 389 851
495 979 797
496 691 762
497 694 486
498 322 213
499 600 75
500 458 506
501 368 879
502 782 605
503 700 177
504 553 57
505 650 469
506 361 931
507 535 162
508 911 691
509 779 427
510 580 467
511 584 169
512 711 433
513 485 490
514 968 639
515 469 82
516 538 432
517 423 126
518 649 580
519 741 403
520 714 575
521 630 532
522 937 664
523 696 451
524 698 403
525 561 303
526 316 878
527 476 920
528 503 81
529 414 875
530 368 922
531 966 709
532 482 907
533 426 613
534 619 443
535 319 189
536 696 579
537 561 392
538 759 434
539 549 403
540 498 309
541 697 697
542 695 444
543 385 778
544 509 466
545 276 695
546 383 737
547 566 572
548 727 389
549 693 465
550 854 859
551 855 780
552 449 817
553 702 359
554 534 381
555 514 94
556 782 608
557 691 459
558 953 734
559 911 584
560 734 515
561 794 421
562 930 603
563 465 430
564 715 395
565 605 486
566 925 589
567 903 700
568 568 459
569 86 841
570 936 814
571 549 796
572 411 888
573 953 696
574 447 81
575 933 643
576 696 450
577 956 648
578 649 450
579 936 782
580 633 463
581 839 490
582 542 792
583 313 985
584 760 439
585 374 822
586 552 70
587 851 771
588 926 659
589 382 872
590 583 543
591 677 320
592 715 473
593 901 671
594 663 399
595 408 731
596 897 704
597 929 716
598 542 495
599 489 528
600 713 468
601 469 846
602 651 455
603 261 63
604 683 408
605 434 996
606 788 856
607 978 757
608 623 345
609 543 811
610 653 493
611 379 843
612 506 537
613 496 106
614 383 774
615 462 553
616 430 887
617 302 731
618 406 888
619 610 449
620 532 555
621 564 430
622 534 722
623 695 476
624 434 879
625 682 386
626 548 215
627 352 885
628 415 527
629 353 967
630 896 713
631 540 259
632 480 99
633 839 438
634 365 542
635 590 403
636 481 887
637 502 470
638 319 886
639 439 0
640 927 975
641 864 824
642 462 863
643 630 506
644 599 377
645 367 989
646 550 29
647 700 450
648 542 469
649 703 490
650 667 751
651 364 868
652 790 67
653 648 405
654 491 754
655 320 938
656 389 659
657 568 443
658 576 450
659 584 364
660 333 868
661 762 894
662 834 595
663 430 114
664 423 911
665 807 652
666 522 548
667 662 421
668 585 319
669 418 848
670 604 518
671 812 478
672 638 504
673 509 877
674 732 547
675 927 682
676 540 734
677 738 408
678 417 762
679 473 879
680 520 472
681 593 467
682 394 842
683 965 697
684 515 504
685 462 96
686 944 706
687 656 462
688 484 966
689 632 71
690 966 732
691 362 792
692 864 521
693 878 724
694 246 855
695 669 545
696 438 908
697 591 551
698 803 761
699 889 884
700 660 404
701 517 469
PICKUP_AND_DELIVERY_SECTION
1 0 0 1000000000 0 0 0
2 0 0 1000000000 0 0 2
3 0 0 1000000000 0 8 0
4 0 0 1000000000 0 0 7
5 0 0 1000000000 0 5 0
6 0 0 1000000000 0 0 3
7 0 0 1000000000 0 7 0
8 0 0 1000000000 0 0 6
9 0 0 1000000000 0 3 0
10 0 0 1000000000 0 0 10
11 0 0 1000000000 0 2 0
12 0 0 1000000000 0 0 1
13 0 0 1000000000 0 8 0
14 0 0 1000000000 0 0 8
15 0 0 1000000000 0 8 0
16 0 0 1000000000 0 0 8
17 0 0 1000000000 0 4 0
18 0 0 1000000000 0 0 9
19 0 0 1000000000 0 7 0
20 0 0 1000000000 0 0 9
21 0 0 1000000000 0 4 0
22 0 0 1000000000 0 0 10
23 0 0 1000000000 0 4 0
24 0 0 1000000000 0 0 1
25 0 0 1000000000 0 2 0
26 0 0 1000000000 0 0 1
27 0 0 1000000000 0 9 0
28 0 0 1000000000 0 0 4
29 0 0 1000000000 0 4 0
30 0 0 1000000000 0 0 5
31 0 0 1000000000 0 8 0
32 0 0 1000000000 0 0 2
33 0 0 1000000000 0 9 0
34 0 0 1000000000 0 0 3
35 0 0 1000000000 0 1 0
36 0 0 1000000000 0 0 8
37 0 0 1000000000 0 2 0
38 0 0 1000000000 0 0 8
39 0 0 1000000000 0 3 0
40 0 0 1000000000 0 0 3
41 0 0 1000000000 0 2 0
42 0 0 1000000000 0 0 4
43 0 0 1000000000 0 3 0
44 0 0 1000000000 0 0 2
45 0 0 1000000000 0 7 0
46 0 0 1000000000 0 0 7
47 0 0 1000000000 0 9 0
48 0 0 1000000000 0 0 1
49 0 0 1000000000 0 5 0
50 0 0 1000000000 0 0 7
51 0 0 1000000000 0 10 0
52 0 0 1000000000 0 0 5
53 0 0 1000000000 0 9 0
54 0 0 1000000000 0 0 7
55 0 0 1000000000 0 7 0
56 0 0 1000000000 0 0 1
57 0 0 1000000000 0 3 0
58 0 0 1000000000 0 0 5
59 0 0 1000000000 0 9 0
60 0 0 1000000000 0 0 5
61 0 0 1000000000 0 4 0
62 0 0 1000000000 0 0 5
63 0 0 1000000000 0 9 0
64 0 0 1000000000 0 0 4
65 0 0 1000000000 0 4 0
66 0 0 1000000000 0 0 7
67 0 0 1000000000 0 8 0
68 0 0 1000000000 0 0 1
69 0 0 1000000000 0 8 0
70 0 0 1000000000 0 0 7
71 0 0 1000000000 0 2 0
72 0 0 1000000000 0 0 9
73 0 0 1000000000 0 5 0
74 0 0 1000000000 0 0 1
75 0 0 1000000000 0 6 0
76 0 0 1000000000 0 0 8
77 0 0 1000000000 0 4 0
78 0 0 1000000000 0 0 10
79 0 0 1000000000 0 9 0
80 0 0 1000000000 0 0 8
81 0 0 1000000000 0 4 0
82 0 0 1000000000 0 0 2
83 0 0 1000000000 0 8 0
84 0 0 1000000000 0 0 1
85 0 0 1000000000 0 5 0
86 0 0 1000000000 0 0 2
87 0 0 1000000000 0 7 0
88 0 0 1000000000 0 0 3
89 0 0 1000000000 0 1 0
90 0 0 1000000000 0 0 2
91 0 0 1000000000 0 6 0
92 0 0 1000000000 0 0 5
93 0 0 1000000000 0 10 0
94 0 0 1000000000 0 0 9
95 0 0 1000000000 0 6 0
96 0 0 1000000000 0 0 8
97 0 0 1000000000 0 6 0
98 0 0 1000000000 0 0 1
99 0 0 1000000000 0 8 0
100 0 0 1000000000 0 0 3
101 0 0 1000000000 0 8 0
102 0 0 1000000000 0 0 9
103 0 0 1000000000 0 2 0
104 0 0 1000000000 0 0 9
105 0 0 1000000000 0 8 0
106 0 0 1000000000 0 0 8
107 0 0 1000000000 0 2 0
108 0 0 1000000000 0 0 7
109 0 0 1000000000 0 4 0
110 0 0 1000000000 0 0 10
111 0 0 1000000000 0 5 0
112 0 0 1000000000 0 0 4
113 0 0 1000000000 0 10 0
114 0 0 1000000000 0 0 9
115 0 0 1000000000 0 9 0
116 0 0 1000000000 0 0 7
117 0 0 1000000000 0 6 0
118 0 0 1000000000 0 0 7
119 0 0 1000000000 0 10 0
120 0 0 1000000000 0 0 10
121 0 0 1000000000 0 5 0
122 0 0 1000000000 0 0 6
123 0 0 1000000000 0 1 0
124 0 0 1000000000 0 0 3
125 0 0 1000000000 0 4 0
126 0 0 1000000000 0 0 1
127 0 0 1000000000 0 5 0
128 0 0 1000000000 0 0 8
129 0 0 1000000000 0 3 0
130 0 0 1000000000 0 0 1
131 0 0 1000000000 0 4 0
132 0 0 1000000000 0 0 4
133 0 0 1000000000 0 3 0
134 0 0 1000000000 0 0 8
135 0 0 1000000000 0 6 0
136 0 0 1000000000 0 0 8
137 0 0 1000000000 0 1 0
138 0 0 1000000000 0 0 2
139 0 0 1000000000 0 2 0
140 0 0 1000000000 0 0 8
141 0 0 1000000000 0 9 0
142 0 0 1000000000 0 0 6
143 0 0 1000000000 0 10 0
144 0 0 1000000000 0 0 3
145 0 0 1000000000 0 1 0
146 0 0 1000000000 0 0 5
147 0 0 1000000000 0 6 0
148 0 0 1000000000 0 0 1
149 0 0 1000000000 0 4 0
150 0 0 1000000000 0 0 4
151 0 0 1000000000 0 10 0
152 0 0 1000000000 0 0 8
153 0 0 1000000000 0 10 0
154 0 0 1000000000 0 0 5
155 0 0 1000000000 0 5 0
156 0 0 1000000000 0 0 8
157 0 0 1000000000 0 10 0
158 0 0 1000000000 0 0 1
159 0 0 1000000000 0 2 0
160 0 0 1000000000 0 0 7
161 0 0 1000000000 0 4 0
162 0 0 1000000000 0 0 3
163 0 0 1000000000 0 4 0
164 0 0 1000000000 0 0 4
165 0 0 1000000000 0 6 0
166 0 0 1000000000 0 0 3
167 0 0 1000000000 0 1 0
168 0 0 1000000000 0 0 8
169 0 0 1000000000 0 9 0
170 0 0 1000000000 0 0 8
171 0 0 1000000000 0 5 0
172 0 0 1000000000 0 0 1
173 0 0 1000000000 0 2 0
174 0 0 1000000000 0 0 2
175 0 0 1000000000 0 10 0
176 0 0 1000000000 0 0 9
177 0 0 1000000000 0 4 0
178 0 0 1000000000 0 0 7
179 0 0 1000000000 0 7 0
180 0 0 1000000000 0 0 2
181 0 0 1000000000 0 1 0
182 0 0 1000000000 0 0 4
183 0 0 1000000000 0 2 0
184 0 0 1000000000 0 0 9
185 0 0 1000000000 0 6 0
186 0 0 1000000000 0 0 6
187 0 0 1000000000 0 8 0
188 0 0 1000000000 0 0 9
189 0 0 1000000000 0 1 0
190 0 0 1000000000 0 0 10
191 0 0 1000000000 0 2 0
192 0 0 1000000000 0 0 10
193 0 0 1000000000 0 6 0
194 0 0 1000000000 0 0 4
195 0 0 1000000000 0 9 0
196 0 0 1000000000 0 0 10
197 0 0 1000000000 0 1 0
198 0 0 1000000000 0 0 8
199 0 0 1000000000 0 1 0
200 0 0 1000000000 0 0 4
201 0 0 1000000000 0 2 0
202 0 0 1000000000 0 0 4
203 0 0 1000000000 0 2 0
204 0 0 1000000000 0 0 5
205 0 0 1000000000 0 5 0
206 0 0 1000000000 0 0 9
207 0 0 1000000000 0 1 0
208 0 0 1000000000 0 0 5
209 0 0 1000000000 0 7 0
210 0 0 1000000000 0 0 2
211 0 0 1000000000 0 4 0
212 0 0 1000000000 0 0 1
213 0 0 1000000000 0 1 0
214 0 0 1000000000 0 0 9
215 0 0 1000000000 0 3 0
216 0 0 1000000000 0 0 8
217 0 0 1000000000 0 1 0
218 0 0 1000000000 0 0 4
219 0 0 1000000000 0 9 0
220 0 0 1000000000 0 0 5
221 0 0 1000000000 0 8 0
222 0 0 1000000000 0 0 2
223 0 0 1000000000 0 10 0
224 0 0 1000000000 0 0 1
225 0 0 1000000000 0 6 0
226 0 0 1000000000 0 0 1
227 0 0 1000000000 0 9 0
228 0 0 1000000000 0 0 3
229 0 0 1000000000 0 9 0
230 0 0 1000000000 0 0 4
231 0 0 1000000000 0 1 0
232 0 0 1000000000 0 0 10
233 0 0 1000000000 0 8 0
234 0 0 1000000000 0 0 6
235 0 0 1000000000 0 4 0
236 0 0 1000000000 0 0 8
237 0 0 1000000000 0 2 0
238 0 0 1000000000 0 0 7
239 0 0 1000000000 0 8 0
240 0 0 1000000000 0 0 7
241 0 0 1000000000 0 7 0
242 0 0 1000000000 0 0 6
243 0 0 1000000000 0 6 0
244 0 0 1000000000 0 0 5
245 0 0 1000000000 0 6 0
246 0 0 1000000000 0 0 1
247 0 0 1000000000 0 8 0
248 0 0 1000000000 0 0 10
249 0 0 1000000000 0 1 0
250 0 0 1000000000 0 0 6
251 0 0 1000000000 0 1 0
252 0 0 1000000000 0 0 6
253 0 0 1000000000 0 5 0
254 0 0 1000000000 0 0 6
255 0 0 1000000000 0 2 0
256 0 0 1000000000 0 0 4
257 0 0 1000000000 0 4 0
258 0 0 1000000000 0 0 1
259 0 0 1000000000 0 6 0
260 0 0 1000000000 0 0 10
261 0 0 1000000000 0 4 0
262 0 0 1000000000 0 0 1
263 0 0 1000000000 0 8 0
264 0 0 1000000000 0 0 1
265 0 0 1000000000 0 3 0
266 0 0 1000000000 0 0 1
267 0 0 1000000000 0 10 0
268 0 0 1000000000 0 0 1
269 0 0 1000000000 0 5 0
270 0 0 1000000000 0 0 10
271 0 0 1000000000 0 6 0
272 0 0 1000000000 0 0 7
273 0 0 1000000000 0 4 0
274 0 0 1000000000 0 0 5
275 0 0 1000000000 0 4 0
276 0 0 1000000000 0 0 4
277 0 0 1000000000 0 10 0
278 0 0 1000000000 0 0 10
279 0 0 1000000000 0 1 0
280 0 0 1000000000 0 0 8
281 0 0 1000000000 0 5 0
282 0 0 1000000000 0 0 10
283 0 0 1000000000 0 2 0
284 0 0 1000000000 0 0 9
285 0 0 1000000000 0 5 0
286 0 0 1000000000 0 0 4
287 0 0 1000000000 0 3 0
288 0 0 1000000000 0 0 3
289 0 0 1000000000 0 6 0
290 0 0 1000000000 0 0 9
291 0 0 1000000000 0 8 0
292 0 0 1000000000 0 0 3
293 0 0 1000000000 0 9 0
294 0 0 1000000000 0 0 3
295 0 0 1000000000 0 7 0
296 0 0 1000000000 0 0 10
297 0 0 1000000000 0 6 0
298 0 0 1000000000 0 0 5
299 0 0 1000000000 0 10 0
300 0 0 1000000000 0 0 1
301 0 0 1000000000 0 7 0
302 0 0 1000000000 0 0 7
303 0 0 1000000000 0 10 0
304 0 0 1000000000 0 0 10
305 0 0 1000000000 0 3 0
306 0 0 1000000000 0 0 6
307 0 0 1000000000 0 9 0
308 0 0 1000000000 0 0 7
309 0 0 1000000000 0 4 0
310 0 0 1000000000 0 0 9
311 0 0 1000000000 0 8 0
312 0 0 1000000000 0 0 6
313 0 0 1000000000 0 1 0
314 0 0 1000000000 0 0 1
315 0 0 1000000000 0 3 0
316 0 0 1000000000 0 0 5
317 0 0 1000000000 0 10 0
318 0 0 1000000000 0 0 9
319 0 0 1000000000 0 7 0
320 0 0 1000000000 0 0 2
321 0 0 1000000000 0 10 0
322 0 0 1000000000 0 0 2
323 0 0 1000000000 0 7 0
324 0 0 1000000000 0 0 8
325 0 0 1000000000 0 7 0
326 0 0 1000000000 0 0 9
327 0 0 1000000000 0 2 0
328 0 0 1000000000 0 0 1
329 0 0 1000000000 0 4 0
330 0 0 1000000000 0 0 4
331 0 0 1000000000 0 7 0
332 0 0 1000000000 0 0 7
333 0 0 1000000000 0 1 0
334 0 0 1000000000 0 0 2
335 0 0 1000000000 0 6 0
336 0 0 1000000000 0 0 1
337 0 0 1000000000 0 4 0
338 0 0 1000000000 0 0 6
339 0 0 1000000000 0 9 0
340 0 0 1000000000 0 0 2
341 0 0 1000000000 0 2 0
342 0 0 1000000000 0 0 8
343 0 0 1000000000 0 5 0
344 0 0 1000000000 0 0 9
345 0 0 1000000000 0 7 0
346 0 0 1000000000 0 0 6
347 0 0 1000000000 0 4 0
348 0 0 1000000000 0 0 3
349 0 0 1000000000 0 3 0
350 0 0 1000000000 0 0 2
351 0 0 1000000000 0 2 0
352 0 0 1000000000 0 0 5
353 0 0 1000000000 0 5 0
354 0 0 1000000000 0 0 8
355 0 0 1000000000 0 3 0
356 0 0 1000000000 0 0 6
357 0 0 1000000000 0 9 0
358 0 0 1000000000 0 0 3
359 0 0 1000000000 0 9 0
360 0 0 1000000000 0 0 8
361 0 0 1000000000 0 6 0
362 0 0 1000000000 0 0 6
363 0 0 1000000000 0 8 0
364 0 0 1000000000 0 0 10
365 0 0 1000000000 0 10 0
366 0 0 1000000000 0 0 5
367 0 0 1000000000 0 10 0
368 0 0 1000000000 0 0 2
369 0 0 1000000000 0 5 0
370 0 0 1000000000 0 0 1
371 0 0 1000000000 0 7 0
372 0 0 1000000000 0 0 10
373 0 0 1000000000 0 7 0
374 0 0 1000000000 0 0 1
375 0 0 1000000000 0 6 0
376 0 0 1000000000 0 0 10
377 0 0 1000000000 0 10 0
378 0 0 1000000000 0 0 1
379 0 0 1000000000 0 6 0
380 0 0 1000000000 0 0 1
381 0 0 1000000000 0 8 0
382 0 0 1000000000 0 0 3
383 0 0 1000000000 0 1 0
384 0 0 1000000000 0 0 6
385 0 0 1000000000 0 8 0
386 0 0 1000000000 0 0 1
387 0 0 1000000000 0 5 0
388 0 0 1000000000 0 0 5
389 0 0 1000000000 0 10 0
390 0 0 1000000000 0 0 4
391 0 0 1000000000 0 3 0
392 0 0 1000000000 0 0 6
393 0 0 1000000000 0 9 0
394 0 0 1000000000 0 0 7
395 0 0 1000000000 0 6 0
396 0 0 1000000000 0 0 8
397 0 0 1000000000 0 6 0
398 0 0 1000000000 0 0 8
399 0 0 1000000000 0 6 0
400 0 0 1000000000 0 0 9
401 0 0 1000000000 0 2 0
402 0 0 1000000000 0 0 8
403 0 0 1000000000 0 2 0
404 0 0 1000000000 0 0 8
405 0 0 1000000000 0 2 0
406 0 0 1000000000 0 0 7
407 0 0 1000000000 0 8 0
408 0 0 1000000000 0 0 3
409 0 0 1000000000 0 7 0
410 0 0 1000000000 0 0 4
411 0 0 1000000000 0 9 0
412 0 0 1000000000 0 0 8
413 0 0 1000000000 0 6 0
414 0 0 1000000000 0 0 6
415 0 0 1000000000 0 10 0
416 0 0 1000000000 0 0 9
417 0 0 1000000000 0 6 0
418 0 0 1000000000 0 0 10
419 0 0 1000000000 0 5 0
420 0 0 1000000000 0 0 5
421 0 0 1000000000 0 1 0
422 0 0 1000000000 0 0 6
423 0 0 1000000000 0 10 0
424 0 0 1000000000 0 0 8
425 0 0 1000000000 0 1 0
426 0 0 1000000000 0 0 3
427 0 0 1000000000 0 9 0
428 0 0 1000000000 0 0 10
429 0 0 1000000000 0 3 0
430 0 0 1000000000 0 0 3
431 0 0 1000000000 0 9 0
432 0 0 1000000000 0 0 5
433 0 0 1000000000 0 3 0
434 0 0 1000000000 0 0 3
435 0 0 1000000000 0 4 0
436 0 0 1000000000 0 0 7
437 0 0 1000000000 0 8 0
438 0 0 1000000000 0 0 9
439 0 0 1000000000 0 4 0
440 0 0 1000000000 0 0 3
441 0 0 1000000000 0 8 0
442 0 0 1000000000 0 0 10
443 0 0 1000000000 0 3 0
444 0 0 1000000000 0 0 4
445 0 0 1000000000 0 2 0
446 0 0 1000000000 0 0 1
447 0 0 1000000000 0 4 0
448 0 0 1000000000 0 0 9
449 0 0 1000000000 0 8 0
450 0 0 1000000000 0 0 1
451 0 0 1000000000 0 3 0
452 0 0 1000000000 0 0 5
453 0 0 1000000000 0 6 0
454 0 0 1000000000 0 0 9
455 0 0 1000000000 0 5 0
456 0 0 1000000000 0 0 9
457 0 0 1000000000 0 10 0
458 0 0 1000000000 0 0 2
459 0 0 1000000000 0 9 0
460 0 0 1000000000 0 0 5
461 0 0 1000000000 0 2 0
462 0 0 1000000000 0 0 1
463 0 0 1000000000 0 6 0
464 0 0 1000000000 0 0 4
465 0 0 1000000000 0 8 0
466 0 0 1000000000 0 0 3
467 0 0 1000000000 0 5 0
468 0 0 1000000000 0 0 5
469 0 0 1000000000 0 10 0
470 0 0 1000000000 0 0 9
471 0 0 1000000000 0 1 0
472 0 0 1000000000 0 0 3
473 0 0 1000000000 0 10 0
474 0 0 1000000000 0 0 7
475 0 0 1000000000 0 9 0
476 0 0 1000000000 0 0 8
477 0 0 1000000000 0 6 0
478 0 0 1000000000 0 0 9
479 0 0 1000000000 0 9 0
480 0 0 1000000000 0 0 9
481 0 0 1000000000 0 2 0
482 0 0 1000000000 0 0 10
483 0 0 1000000000 0 8 0
484 0 0 1000000000 0 0 3
485 0 0 1000000000 0 8 0
486 0 0 1000000000 0 0 5
487 0 0 1000000000 0 4 0
488 0 0 1000000000 0 0 3
489 0 0 1000000000 0 4 0
490 0 0 1000000000 0 0 8
491 0 0 1000000000 0 6 0
492 0 0 1000000000 0 0 2
493 0 0 1000000000 0 8 0
494 0 0 1000000000 0 0 3
495 0 0 1000000000 0 1 0
496 0 0 1000000000 0 0 1
497 0 0 1000000000 0 2 0
498 0 0 1000000000 0 0 5
499 0 0 1000000000 0 3 0
500 0 0 1000000000 0 0 1
501 0 0 1000000000 0 10 0
502 0 0 1000000000 0 0 7
503 0 0 1000000000 0 5 0
504 0 0 1000000000 0 0 8
505 0 0 1000000000 0 10 0
506 0 0 1000000000 0 0 1
507 0 0 1000000000 0 7 0
508 0 0 1000000000 0 0 8
509 0 0 1000000000 0 3 0
510 0 0 1000000000 0 0 4
511 0 0 1000000000 0 10 0
512 0 0 1000000000 0 0 3
513 0 0 1000000000 0 5 0
514 0 0 1000000000 0 0 3
515 0 0 1000000000 0 2 0
516 0 0 1000000000 0 0 9
517 0 0 1000000000 0 9 0
518 0 0 1000000000 0 0 6
519 0 0 1000000000 0 1 0
520 0 0 1000000000 0 0 3
521 0 0 1000000000 0 10 0
522 0 0 1000000000 0 0 10
523 0 0 1000000000 0 10 0
524 0 0 1000000000 0 0 10
525 0 0 1000000000 0 2 0
526 0 0 1000000000 0 0 2
527 0 0 1000000000 0 10 0
528 0 0 1000000000 0 0 9
529 0 0 1000000000 0 5 0
530 0 0 1000000000 0 0 4
531 0 0 1000000000 0 10 0
532 0 0 1000000000 0 0 4
533 0 0 1000000000 0 10 0
534 0 0 1000000000 0 0 6
535 0 0 1000000000 0 9 0
536 0 0 1000000000 0 0 2
537 0 0 1000000000 0 6 0
538 0 0 1000000000 0 0 8
539 0 0 1000000000 0 7 0
540 0 0 1000000000 0 0 4
541 0 0 1000000000 0 5 0
542 0 0 1000000000 0 0 5
543 0 0 1000000000 0 3 0
544 0 0 1000000000 0 0 6
545 0 0 1000000000 0 4 0
546 0 0 1000000000 0 0 8
547 0 0 1000000000 0 4 0
548 0 0 1000000000 0 0 2
549 0 0 1000000000 0 2 0
550 0 0 1000000000 0 0 3
551 0 0 1000000000 0 1 0
552 0 0 1000000000 0 0 4
553 0 0 1000000000 0 6 0
554 0 0 1000000000 0 0 4
555 0 0 1000000000 0 1 0
556 0 0 1000000000 0 0 9
557 0 0 1000000000 0 8 0
558 0 0 1000000000 0 0 9
559 0 0 1000000000 0 7 0
560 0 0 1000000000 0 0 3
561 0 0 1000000000 0 4 0
562 0 0 1000000000 0 0 9
563 0 0 1000000000 0 5 0
564 0 0 1000000000 0 0 4
565 0 0 1000000000 0 4 0
566 0 0 1000000000 0 0 7
567 0 0 1000000000 0 10 0
568 0 0 1000000000 0 0 9
569 0 0 1000000000 0 7 0
570 0 0 1000000000 0 0 5
571 0 0 1000000000 0 10 0
572 0 0 1000000000 0 0 5
573 0 0 1000000000 0 6 0
574 0 0 1000000000 0 0 5
575 0 0 1000000000 0 2 0
576 0 0 1000000000 0 0 1
577 0 0 1000000000 0 9 0
578 0 0 1000000000 0 0 1
579 0 0 1000000000 0 5 0
580 0 0 1000000000 0 0 1
581 0 0 1000000000 0 9 0
582 0 0 1000000000 0 0 8
583 0 0 1000000000 0 2 0
584 0 0 1000000000 0 0 10
585 0 0 1000000000 0 10 0
586 0 0 1000000000 0 0 6
587 0 0 1000000000 0 10 0
588 0 0 1000000000 0 0 7
589 0 0 1000000000 0 8 0
590 0 0 1000000000 0 0 5
591 0 0 1000000000 0 9 0
592 0 0 1000000000 0 0 6
593 0 0 1000000000 0 7 0
594 0 0 1000000000 0 0 4
595 0 0 1000000000 0 9 0
596 0 0 1000000000 0 0 9
597 0 0 1000000000 0 4 0
598 0 0 1000000000 0 0 1
599 0 0 1000000000 0 3 0
600 0 0 1000000000 0 0 2
601 0 0 1000000000 0 9 0
602 0 0 1000000000 0 0 8
603 0 0 1000000000 0 5 0
604 0 0 1000000000 0 0 10
605 0 0 1000000000 0 6 0
606 0 0 1000000000 0 0 5
607 0 0 1000000000 0 3 0
608 0 0 1000000000 0 0 4
609 0 0 1000000000 0 7 0
610 0 0 1000000000 0 0 8
611 0 0 1000000000 0 5 0
612 0 0 1000000000 0 0 4
613 0 0 1000000000 0 5 0
614 0 0 1000000000 0 0 2
615 0 0 1000000000 0 6 0
616 0 0 1000000000 0 0 4
617 0 0 1000000000 0 10 0
618 0 0 1000000000 0 0 3
619 0 0 1000000000 0 8 0
620 0 0 1000000000 0 0 4
621 0 0 1000000000 0 5 0
622 0 0 1000000000 0 0 2
623 0 0 1000000000 0 1 0
624 0 0 1000000000 0 0 3
625 0 0 1000000000 0 1 0
626 0 0 1000000000 0 0 7
627 0 0 1000000000 0 3 0
628 0 0 1000000000 0 0 8
629 0 0 1000000000 0 3 0
630 0 0 1000000000 0 0 1
631 0 0 1000000000 0 3 0
632 0 0 1000000000 0 0 7
633 0 0 1000000000 0 2 0
634 0 0 1000000000 0 0 5
635 0 0 1000000000 0 4 0
636 0 0 1000000000 0 0 8
637 0 0 1000000000 0 1 0
638 0 0 1000000000 0 0 7
639 0 0 1000000000 0 2 0
640 0 0 1000000000 0 0 6
641 0 0 1000000000 0 4 0
642 0 0 1000000000 0 0 6
643 0 0 1000000000 0 5 0
644 0 0 1000000000 0 0 2
645 0 0 1000000000 0 1 0
646 0 0 1000000000 0 0 7
647 0 0 1000000000 0 1 0
648 0 0 1000000000 0 0 2
649 0 0 1000000000 0 4 0
650 0 0 1000000000 0 0 1
651 0 0 1000000000 0 3 0
652 0 0 1000000000 0 0 8
653 0 0 1000000000 0 3 0
654 0 0 1000000000 0 0 2
655 0 0 1000000000 0 8 0
656 0 0 1000000000 0 0 8
657 0 0 1000000000 0 5 0
658 0 0 1000000000 0 0 4
659 0 0 1000000000 0 7 0
660 0 0 1000000000 0 0 1
661 0 0 1000000000 0 4 0
662 0 0 1000000000 0 0 7
663 0 0 1000000000 0 6 0
664 0 0 1000000000 0 0 6
665 0 0 1000000000 0 2 0
666 0 0 1000000000 0 0 1
667 0 0 1000000000 0 6 0
668 0 0 1000000000 0 0 8
669 0 0 1000000000 0 2 0
670 0 0 1000000000 0 0 2
671 0 0 1000000000 0 3 0
672 0 0 1000000000 0 0 4
673 0 0 1000000000 0 1 0
674 0 0 1000000000 0 0 2
675 0 0 1000000000 0 5 0
676 0 0 1000000000 0 0 3
677 0 0 1000000000 0 1 0
678 0 0 1000000000 0 0 5
679 0 0 1000000000 0 10 0
680 0 0 1000000000 0 0 6
681 0 0 1000000000 0 10 0
682 0 0 1000000000 0 0 7
683 0 0 1000000000 0 7 0
684 0 0 1000000000 0 0 8
685 0 0 1000000000 0 3 0
686 0 0 1000000000 0 0 5
687 0 0 1000000000 0 4 0
688 0 0 1000000000 0 0 4
689 0 0 1000000000 0 5 0
690 0 0 1000000000 0 0 3
691 0 0 1000000000 0 10 0
692 0 0 1000000000 0 0 6
693 0 0 1000000000 0 10 0
694 0 0 1000000000 0 0 1
695 0 0 1000000000 0 7 0
696 0 0 1000000000 0 0 4
697 0 0 1000000000 0 7 0
698 0 0 1000000000 0 0 4
699 0 0 1000000000 0 2 0
700 0 0 1000000000 0 0 9
701 0 0 1000000000 0 2 0
